33 72 18 16 25 49 43 14 62 46 46 90 85 90 69 41 69 57 77 68 86 96 80 10 57 
28 22 43 45 93 38 51 14 63 84 65 38 19 45 63 44 41 26 51 41 30 68 65 44 51 
54 39 15 87 81 52 18 47 83 40 62 17 93 70 14 18 75 80 75 44 61 27 92 70 23 
61 32 50 61 81 86 21 93 68 74 67 78 28 46 86 20 89 74 74 23 49 49 12 45 79 
10 83 81 60 44 24 46 37 99 89 85 84 80 36 17 62 19 74 96 53 51 26 12 91 46 
702.00
